Maximize
 obj: 0 X1
Subject To
 c1:
  + 1 X57 + 1 X46 + 1 X98 + 1 X27 + 1 X63 + 1 X36 + 1 X34 + 1 X48
  + 1 X45 + 1 X11 + 1 X75 + 1 X22 + 1 X25 + 1 X81 + 1 X69
  <= 1
 c2:
  + 1 X90 + 1 X43 + 1 X80 + 1 X54 + 1 X48 + 1 X95 + 1 X46 + 1 X92
  + 1 X51 + 1 X76 + 1 X59 + 1 X66
  <= 1
 c3:
  + 1 X2 + 1 X7 + 1 X56 + 1 X89 + 1 X17 + 1 X78 + 1 X20 + 1 X95
  <= 1
 c4:
  + 1 X36 + 1 X96 + 1 X19 + 1 X30 + 1 X26 + 1 X41 + 1 X39 + 1 X52
  + 1 X14 + 1 X78 + 1 X28 + 1 X40 + 1 X53 + 1 X73 + 1 X21
  <= 1
 c5:
  + 1 X17 + 1 X60 + 1 X13 + 1 X4 + 1 X3 + 1 X61 + 1 X11 + 1 X98
  + 1 X34 + 1 X80 + 1 X55 + 1 X67 + 1 X49 + 1 X28 + 1 X48 + 1 X39
  + 1 X47 + 1 X82
  <= 1
 c6:
  + 1 X72 + 1 X99 + 1 X30 + 1 X98 + 1 X82 + 1 X71 + 1 X68 + 1 X79
  + 1 X59 + 1 X95 + 1 X62
  <= 1
 c7:
  + 1 X65 + 1 X64 + 1 X43 + 1 X73 + 1 X93 + 1 X7
  <= 1
 c8:
  + 1 X78 + 1 X28 + 1 X94 + 1 X99 + 1 X84
  <= 1
 c9:
  + 1 X37 + 1 X86 + 1 X41 + 1 X94 + 1 X45 + 1 X44 + 1 X12 + 1 X21
  + 1 X68 + 1 X58 + 1 X1 + 1 X4 + 1 X38 + 1 X5 + 1 X2 + 1 X56
  + 1 X30 + 1 X62 + 1 X60
  <= 1
 c10:
  + 1 X12 + 1 X59 + 1 X42 + 1 X86 + 1 X76 + 1 X27 + 1 X82 + 1 X16
  + 1 X99 + 1 X91 + 1 X15 + 1 X63 + 1 X68 + 1 X92 + 1 X31 + 1 X28
  + 1 X10 + 1 X26 + 1 X43 + 1 X13
  <= 1
 c11:
  + 1 X88 + 1 X48 + 1 X17 + 1 X44 + 1 X36 + 1 X91 + 1 X83 + 1 X34
  + 1 X39 + 1 X98 + 1 X8 + 1 X37 + 1 X55 + 1 X38 + 1 X62 + 1 X99
  <= 1
 c12:
  + 1 X73 + 1 X92 + 1 X57 + 1 X76 + 1 X61 + 1 X80 + 1 X63 + 1 X43
  + 1 X39 + 1 X15 + 1 X30 + 1 X49 + 1 X55 + 1 X11 + 1 X81 + 1 X42
  + 1 X33 + 1 X87
  <= 1
 c13:
  + 1 X76 + 1 X39 + 1 X61 + 1 X50 + 1 X52 + 1 X35 + 1 X88 + 1 X58
  + 1 X12
  <= 1
 c14:
  + 1 X17 + 1 X37 + 1 X39 + 1 X45
  <= 1
 c15:
  + 1 X16 + 1 X60 + 1 X62 + 1 X30 + 1 X18 + 1 X29 + 1 X45 + 1 X64
  <= 1
 c16:
  + 1 X99 + 1 X57 + 1 X1 + 1 X91 + 1 X84 + 1 X29 + 1 X22 + 1 X61
  + 1 X93 + 1 X62 + 1 X77 + 1 X33 + 1 X21 + 1 X5 + 1 X73 + 1 X6
  + 1 X90 + 1 X50
  <= 1
 c17:
  + 1 X100 + 1 X97 + 1 X29 + 1 X25 + 1 X54 + 1 X76 + 1 X9 + 1 X1
  + 1 X91
  <= 1
 c18:
  + 1 X26 + 1 X34 + 1 X72 + 1 X55 + 1 X76 + 1 X32
  <= 1
 c19:
  + 1 X66 + 1 X22 + 1 X87 + 1 X70 + 1 X75 + 1 X39 + 1 X1 + 1 X84
  <= 1
 c20:
  + 1 X75 + 1 X22 + 1 X59 + 1 X21 + 1 X40 + 1 X26 + 1 X18 + 1 X69
  + 1 X2
  <= 1
 obj1:
  + 56 X1 + 16 X2 + 61 X3 + 28 X4 + 76 X5 + 85 X6 + 87 X7 + 25 X8
  + 24 X9 + 53 X10 + 70 X11 + 96 X12 + 3 X13 + 24 X14 + 82 X15 + 87 X16
  + 82 X17 + 34 X18 + 4 X19 + 26 X20 + 78 X21 + 100 X22 + 97 X23 + 34 X24
  + 62 X25 + 85 X26 + 75 X27 + 67 X28 + 50 X29 + 22 X30 + 28 X31 + 19 X32
  + 18 X33 + 8 X34 + 99 X35 + 77 X36 + 70 X37 + 16 X38 + 80 X39 + 48 X40
  + 39 X41 + 89 X42 + 10 X43 + 41 X44 + 5 X45 + 62 X46 + 44 X47 + 7 X48
  + 43 X49 + 33 X50 + 64 X51 + 35 X52 + 11 X53 + 22 X54 + 55 X55 + 94 X56
  + 48 X57 + 56 X58 + 60 X59 + 77 X60 + 20 X61 + 4 X62 + 77 X63 + 34 X64
  + 57 X65 + 87 X66 + 28 X67 + 59 X68 + 25 X69 + 78 X70 + 75 X71 + 36 X72
  + 17 X73 + 42 X74 + 52 X75 + 36 X76 + 23 X77 + 33 X78 + 99 X79 + 24 X80
  + 37 X81 + 24 X82 + 72 X83 + 17 X84 + 48 X85 + 18 X86 + 65 X87 + 39 X88
  + 65 X89 + 28 X90 + 9 X91 + 50 X92 + 19 X93 + 77 X94 + 70 X95 + 35 X96
  + 92 X97 + 21 X98 + 6 X99 + 92 X100
  >= 1
 obj2:
  + 25 X1 + 80 X2 + 25 X3 + 25 X4 + 23 X5 + 92 X6 + 18 X7 + 67 X8
  + 69 X9 + 36 X10 + 30 X11 + 73 X12 + 2 X13 + 57 X14 + 82 X15 + 95 X16
  + 11 X17 + 7 X18 + 49 X19 + 31 X20 + 81 X21 + 16 X22 + 88 X23 + 29 X24
  + 69 X25 + 73 X26 + 61 X27 + 6 X28 + 83 X29 + 20 X30 + 84 X31 + 48 X32
  + 29 X33 + 71 X34 + 11 X35 + 1 X36 + 24 X37 + 54 X38 + 63 X39 + 57 X40
  + 72 X41 + 59 X42 + 70 X43 + 34 X44 + 47 X45 + 99 X46 + 22 X47 + 2 X48
  + 39 X49 + 11 X50 + 69 X51 + 61 X52 + 61 X53 + 31 X54 + 69 X55 + 82 X56
  + 27 X57 + 83 X58 + 68 X59 + 44 X60 + 27 X61 + 74 X62 + 41 X63 + 95 X64
  + 59 X65 + 80 X66 + 7 X67 + 20 X68 + 36 X69 + 33 X70 + 79 X71 + 18 X72
  + 76 X73 + 87 X74 + 96 X75 + 75 X76 + 87 X77 + 77 X78 + 45 X79 + 87 X80
  + 87 X81 + 52 X82 + 31 X83 + 25 X84 + 42 X85 + 65 X86 + 93 X87 + 60 X88
  + 83 X89 + 59 X90 + 77 X91 + 9 X92 + 14 X93 + 60 X94 + 5 X95 + 73 X96
  + 76 X97 + 40 X98 + 9 X99 + 71 X100
  >= 2
 obj3:
  + 69 X1 + 89 X2 + 53 X3 + 1 X4 + 4 X5 + 75 X6 + 80 X7 + 57 X8
  + 31 X9 + 34 X10 + 61 X11 + 80 X12 + 59 X13 + 39 X14 + 10 X15 + 19 X16
  + 1 X17 + 21 X18 + 75 X19 + 82 X20 + 29 X21 + 56 X22 + 66 X23 + 88 X24
  + 46 X25 + 77 X26 + 77 X27 + 82 X28 + 87 X29 + 98 X30 + 30 X31 + 80 X32
  + 15 X33 + 83 X34 + 63 X35 + 20 X36 + 61 X37 + 28 X38 + 72 X39 + 50 X40
  + 39 X41 + 8 X42 + 51 X43 + 24 X44 + 23 X45 + 1 X46 + 35 X47 + 54 X48
  + 53 X49 + 29 X50 + 23 X51 + 84 X52 + 36 X53 + 57 X54 + 27 X55 + 23 X56
  + 16 X57 + 24 X58 + 76 X59 + 15 X60 + 91 X61 + 56 X62 + 37 X63 + 3 X64
  + 81 X65 + 96 X66 + 84 X67 + 21 X68 + 87 X69 + 97 X70 + 72 X71 + 81 X72
  + 62 X73 + 66 X74 + 10 X75 + 52 X76 + 52 X77 + 34 X78 + 32 X79 + 51 X80
  + 35 X81 + 86 X82 + 94 X83 + 23 X84 + 36 X85 + 24 X86 + 30 X87 + 54 X88
  + 1 X89 + 3 X90 + 89 X91 + 79 X92 + 89 X93 + 61 X94 + 82 X95 + 15 X96
  + 56 X97 + 54 X98 + 10 X99 + 62 X100
  >= 3
Binary
 X1
 X2
 X3
 X4
 X5
 X6
 X7
 X8
 X9
 X10
 X11
 X12
 X13
 X14
 X15
 X16
 X17
 X18
 X19
 X20
 X21
 X22
 X23
 X24
 X25
 X26
 X27
 X28
 X29
 X30
 X31
 X32
 X33
 X34
 X35
 X36
 X37
 X38
 X39
 X40
 X41
 X42
 X43
 X44
 X45
 X46
 X47
 X48
 X49
 X50
 X51
 X52
 X53
 X54
 X55
 X56
 X57
 X58
 X59
 X60
 X61
 X62
 X63
 X64
 X65
 X66
 X67
 X68
 X69
 X70
 X71
 X72
 X73
 X74
 X75
 X76
 X77
 X78
 X79
 X80
 X81
 X82
 X83
 X84
 X85
 X86
 X87
 X88
 X89
 X90
 X91
 X92
 X93
 X94
 X95
 X96
 X97
 X98
 X99
 X100
End
